(set-option :produce-models true); benchmark generated from python API
(set-info :status unknown)
(declare-fun l_0_0_7 () Real)
(declare-fun l_0_0_1 () Real)
(declare-fun _a_0_ () Real)
(declare-fun l_0_0_6 () Real)
(declare-fun l_0_0_5 () Real)
(declare-fun l_0_0_4 () Real)
(declare-fun l_0_0_12 () Real)
(declare-fun l_0_0_11 () Real)
(declare-fun l_0_0_10 () Real)
(declare-fun _a_1_ () Real)
(declare-fun l_0_0_9 () Real)
(declare-fun l_0_0_8 () Real)
(declare-fun l_0_0_3 () Real)
(declare-fun l_0_0_2 () Real)
(declare-fun _a_2_ () Real)
(declare-fun _a_3_ () Real)
(declare-fun _a_4_ () Real)
(declare-fun _a_5_ () Real)
(declare-fun l_0_1_7 () Real)
(declare-fun l_0_1_13 () Real)
(declare-fun l_0_1_1 () Real)
(declare-fun l_0_1_9 () Real)
(declare-fun l_0_1_8 () Real)
(declare-fun l_0_1_15 () Real)
(declare-fun l_0_1_14 () Real)
(declare-fun l_0_1_2 () Real)
(declare-fun l_0_1_3 () Real)
(declare-fun l_0_1_18 () Real)
(declare-fun l_0_1_17 () Real)
(declare-fun l_0_1_16 () Real)
(declare-fun l_0_1_12 () Real)
(declare-fun l_0_1_11 () Real)
(declare-fun l_0_1_10 () Real)
(declare-fun l_0_1_4 () Real)
(declare-fun l_0_1_6 () Real)
(declare-fun l_0_1_5 () Real)
(declare-fun l_0_2_7 () Real)
(declare-fun l_0_2_13 () Real)
(declare-fun l_0_2_1 () Real)
(declare-fun l_0_2_18 () Real)
(declare-fun l_0_2_17 () Real)
(declare-fun l_0_2_16 () Real)
(declare-fun l_0_2_12 () Real)
(declare-fun l_0_2_11 () Real)
(declare-fun l_0_2_10 () Real)
(declare-fun l_0_2_4 () Real)
(declare-fun l_0_2_6 () Real)
(declare-fun l_0_2_5 () Real)
(declare-fun l_0_2_15 () Real)
(declare-fun l_0_2_14 () Real)
(declare-fun l_0_2_9 () Real)
(declare-fun l_0_2_8 () Real)
(declare-fun l_0_2_2 () Real)
(declare-fun l_0_2_3 () Real)
(assert
 (let ((?x63 (* l_0_0_7 l_0_0_7)))
 (= (- (- _a_0_ (* (* 1.0 l_0_0_1) l_0_0_1)) ?x63) 0.0)))
(assert
 (let ((?x98 (* l_0_0_12 l_0_0_12)))
 (let ((?x96 (* l_0_0_11 l_0_0_11)))
 (let ((?x97 (- (- (- _a_1_ (* l_0_0_1 l_0_0_1)) (* l_0_0_10 l_0_0_10)) ?x96)))
 (let ((?x105 (- (- (- ?x97 ?x98) (* (* 1.0 l_0_0_4) l_0_0_4)) (* (* 1.0 l_0_0_5) l_0_0_5))))
 (= (- ?x105 (* (* 1.0 l_0_0_6) l_0_0_6)) 0.0))))))
(assert
 (let ((?x142 (* l_0_0_9 l_0_0_9)))
 (let ((?x140 (* l_0_0_8 l_0_0_8)))
 (let ((?x85 (* l_0_0_1 l_0_0_1)))
 (let ((?x133 (+ _a_2_ ?x85)))
 (let ((?x139 (- (- ?x133 (* (* 1.0 l_0_0_2) l_0_0_2)) (* (* 1.0 l_0_0_3) l_0_0_3))))
 (= (- (- ?x139 ?x140) ?x142) 0.0)))))))
(assert
 (let ((?x171 (* (* 2.0 l_0_0_3) l_0_0_5)))
 (let ((?x168 (* (* 2.0 l_0_0_2) l_0_0_4)))
 (let ((?x166 (- (- _a_3_ (* (* 2.0 l_0_0_10) l_0_0_8)) (* (* 2.0 l_0_0_11) l_0_0_9))))
 (= (- (- ?x166 ?x168) ?x171) 0.0)))))
(assert
 (let ((?x204 (- (- _a_4_ (* (* 2.0 l_0_0_1) l_0_0_4)) (* (* 2.0 l_0_0_10) l_0_0_7))))
 (= ?x204 0.0)))
(assert
 (let ((?x223 (- (- _a_5_ (* (* 2.0 l_0_0_1) l_0_0_2)) (* (* 2.0 l_0_0_7) l_0_0_8))))
 (= ?x223 0.0)))
(assert
 (let ((?x200 (* 2.0 l_0_0_1)))
 (let ((?x219 (* ?x200 l_0_0_2)))
 (= ?x219 0.0))))
(assert
 (let ((?x200 (* 2.0 l_0_0_1)))
 (let ((?x201 (* ?x200 l_0_0_4)))
 (= ?x201 0.0))))
(assert
 (= (+ (* l_0_0_2 l_0_0_2) (* l_0_0_3 l_0_0_3)) 0.0))
(assert
 (let ((?x171 (* (* 2.0 l_0_0_3) l_0_0_5)))
 (let ((?x168 (* (* 2.0 l_0_0_2) l_0_0_4)))
 (= (+ ?x168 ?x171) 0.0))))
(assert
 (let ((?x128 (* l_0_0_6 l_0_0_6)))
 (let ((?x124 (* l_0_0_5 l_0_0_5)))
 (let ((?x120 (* l_0_0_4 l_0_0_4)))
 (let ((?x252 (+ (+ (- (* (- l_0_0_2) l_0_0_2) (* l_0_0_3 l_0_0_3)) ?x120) ?x124)))
 (= (+ ?x252 ?x128) 0.0))))))
(assert
 (= (* (* (- 2.0) l_0_0_1) l_0_0_2) 0.0))
(assert
 (= (* (* (- 2.0) l_0_0_1) l_0_0_4) 0.0))
(assert
 (let ((?x171 (* (* 2.0 l_0_0_3) l_0_0_5)))
 (= (- (* (* (- 2.0) l_0_0_2) l_0_0_4) ?x171) 0.0)))
(assert
 (let ((?x128 (* l_0_0_6 l_0_0_6)))
 (= (- (- (* (- l_0_0_4) l_0_0_4) (* l_0_0_5 l_0_0_5)) ?x128) 0.0)))
(assert
 (>= l_0_0_1 0.0))
(assert
 (>= l_0_0_3 0.0))
(assert
 (>= l_0_0_6 0.0))
(assert
 (>= l_0_0_7 0.0))
(assert
 (>= l_0_0_9 0.0))
(assert
 (>= l_0_0_12 0.0))
(assert
 (let ((?x294 (+ (- (* (* (- _a_0_) l_0_1_1) l_0_1_1) (* l_0_1_13 l_0_1_13)) (* 1.0 (* l_0_1_7 l_0_1_7)))))
 (= (+ ?x294 (/ 15.0 4.0)) 0.0)))
(assert
 (let ((?x292 (* l_0_1_7 l_0_1_7)))
 (let ((?x320 (* l_0_1_15 l_0_1_15)))
 (let ((?x318 (* l_0_1_14 l_0_1_14)))
 (let ((?x313 (- (* (- _a_0_) (+ (* l_0_1_2 l_0_1_2) (* l_0_1_3 l_0_1_3))) (* (* _a_2_ l_0_1_1) l_0_1_1))))
 (let ((?x321 (- (- (- ?x313 (* (* (* 2.0 _a_5_) l_0_1_1) l_0_1_2)) ?x318) ?x320)))
 (let ((?x328 (+ (+ (- ?x321 ?x292) (* 1.0 (* l_0_1_8 l_0_1_8))) (* 1.0 (* l_0_1_9 l_0_1_9)))))
 (= (+ ?x328 1.0) 0.0))))))))
(assert
 (let ((?x292 (* l_0_1_7 l_0_1_7)))
 (let ((?x384 (* l_0_1_18 l_0_1_18)))
 (let ((?x382 (* l_0_1_17 l_0_1_17)))
 (let ((?x380 (* l_0_1_16 l_0_1_16)))
 (let ((?x361 (* l_0_1_6 l_0_1_6)))
 (let ((?x362 (+ (+ (* l_0_1_4 l_0_1_4) (* l_0_1_5 l_0_1_5)) ?x361)))
 (let ((?x287 (- _a_0_)))
 (let ((?x370 (- (- (* ?x287 ?x362) (* (* _a_1_ l_0_1_1) l_0_1_1)) (* (* (* 2.0 _a_4_) l_0_1_1) l_0_1_4))))
 (let ((?x376 (+ (+ ?x370 (* 1.0 (* l_0_1_10 l_0_1_10))) (* 1.0 (* l_0_1_11 l_0_1_11)))))
 (let ((?x385 (- (- (- (+ ?x376 (* 1.0 (* l_0_1_12 l_0_1_12))) ?x380) ?x382) ?x384)))
 (= (+ (- ?x385 ?x292) 1.0) 0.0))))))))))))
(assert
 (let ((?x429 (* 2.0 l_0_1_10)))
 (let ((?x430 (* ?x429 l_0_1_7)))
 (let ((?x428 (- (* (* (* (- 2.0) _a_0_) l_0_1_1) l_0_1_4) (* (* _a_4_ l_0_1_1) l_0_1_1))))
 (= (- (- (+ ?x428 ?x430) (* (* 2.0 l_0_1_13) l_0_1_16)) 4.0) 0.0)))))
(assert
 (let ((?x468 (* (* 2.0 l_0_1_7) l_0_1_8)))
 (let ((?x464 (- (* (* (* (- 2.0) _a_0_) l_0_1_1) l_0_1_2) (* (* _a_5_ l_0_1_1) l_0_1_1))))
 (= (+ (- ?x464 (* (* 2.0 l_0_1_13) l_0_1_14)) ?x468) 0.0))))
(assert
 (let ((?x505 (* (* 2.0 l_0_1_11) l_0_1_9)))
 (let ((?x429 (* 2.0 l_0_1_10)))
 (let ((?x502 (* ?x429 l_0_1_8)))
 (let ((?x493 (+ (* (* 2.0 l_0_1_2) l_0_1_4) (* (* 2.0 l_0_1_3) l_0_1_5))))
 (let ((?x287 (- _a_0_)))
 (let ((?x499 (- (- (* ?x287 ?x493) (* (* _a_3_ l_0_1_1) l_0_1_1)) (* (* (* 2.0 _a_4_) l_0_1_1) l_0_1_2))))
 (let ((?x506 (+ (+ (- ?x499 (* (* (* 2.0 _a_5_) l_0_1_1) l_0_1_4)) ?x502) ?x505)))
 (let ((?x512 (- (- ?x506 (* (* 2.0 l_0_1_14) l_0_1_16)) (* (* 2.0 l_0_1_15) l_0_1_17))))
 (= ?x512 0.0))))))))))
(assert
 (let ((?x468 (* (* 2.0 l_0_1_7) l_0_1_8)))
 (let ((?x361 (* l_0_1_6 l_0_1_6)))
 (let ((?x362 (+ (+ (* l_0_1_4 l_0_1_4) (* l_0_1_5 l_0_1_5)) ?x361)))
 (let ((?x493 (+ (* (* 2.0 l_0_1_2) l_0_1_4) (* (* 2.0 l_0_1_3) l_0_1_5))))
 (let ((?x568 (- (* (* (* (- 2.0) _a_1_) l_0_1_1) l_0_1_2) (* (* (* 2.0 _a_3_) l_0_1_1) l_0_1_4))))
 (= (- (- (- ?x568 (* _a_4_ ?x493)) (* _a_5_ ?x362)) ?x468) 0.0)))))))
(assert
 (let ((?x429 (* 2.0 l_0_1_10)))
 (let ((?x430 (* ?x429 l_0_1_7)))
 (let ((?x361 (* l_0_1_6 l_0_1_6)))
 (let ((?x362 (+ (+ (* l_0_1_4 l_0_1_4) (* l_0_1_5 l_0_1_5)) ?x361)))
 (let ((?x627 (- (- (* (* (* (- 2.0) _a_1_) l_0_1_1) l_0_1_4) (* _a_4_ ?x362)) ?x430)))
 (= ?x627 0.0)))))))
(assert
 (let ((?x326 (* l_0_1_9 l_0_1_9)))
 (let ((?x323 (* l_0_1_8 l_0_1_8)))
 (let ((?x377 (* l_0_1_12 l_0_1_12)))
 (let ((?x374 (* l_0_1_11 l_0_1_11)))
 (let ((?x371 (* l_0_1_10 l_0_1_10)))
 (let ((?x493 (+ (* (* 2.0 l_0_1_2) l_0_1_4) (* (* 2.0 l_0_1_3) l_0_1_5))))
 (let ((?x361 (* l_0_1_6 l_0_1_6)))
 (let ((?x362 (+ (+ (* l_0_1_4 l_0_1_4) (* l_0_1_5 l_0_1_5)) ?x361)))
 (let ((?x656 (- (* (- _a_1_) (+ (* l_0_1_2 l_0_1_2) (* l_0_1_3 l_0_1_3))) (* _a_2_ ?x362))))
 (let ((?x663 (- (- (- (- (- (- ?x656 (* _a_3_ ?x493)) ?x371) ?x374) ?x377) ?x323) ?x326)))
 (= ?x663 0.0))))))))))))
(assert
 (let ((?x505 (* (* 2.0 l_0_1_11) l_0_1_9)))
 (let ((?x429 (* 2.0 l_0_1_10)))
 (let ((?x502 (* ?x429 l_0_1_8)))
 (let ((?x361 (* l_0_1_6 l_0_1_6)))
 (let ((?x362 (+ (+ (* l_0_1_4 l_0_1_4) (* l_0_1_5 l_0_1_5)) ?x361)))
 (let ((?x493 (+ (* (* 2.0 l_0_1_2) l_0_1_4) (* (* 2.0 l_0_1_3) l_0_1_5))))
 (let ((?x653 (- _a_1_)))
 (= (- (- (- (* ?x653 ?x493) (* _a_3_ ?x362)) ?x502) ?x505) 0.0)))))))))
(assert
 (let ((?x377 (* l_0_1_12 l_0_1_12)))
 (let ((?x374 (* l_0_1_11 l_0_1_11)))
 (let ((?x371 (* l_0_1_10 l_0_1_10)))
 (let ((?x361 (* l_0_1_6 l_0_1_6)))
 (let ((?x362 (+ (+ (* l_0_1_4 l_0_1_4) (* l_0_1_5 l_0_1_5)) ?x361)))
 (let ((?x653 (- _a_1_)))
 (= (- (- (- (* ?x653 ?x362) ?x371) ?x374) ?x377) 0.0))))))))
(assert
 (let ((?x468 (* (* 2.0 l_0_1_7) l_0_1_8)))
 (let ((?x773 (- (* (* (* (- 2.0) _a_2_) l_0_1_1) l_0_1_2) (* _a_5_ (+ (* l_0_1_2 l_0_1_2) (* l_0_1_3 l_0_1_3))))))
 (= (- ?x773 ?x468) 0.0))))
(assert
 (let ((?x429 (* 2.0 l_0_1_10)))
 (let ((?x430 (* ?x429 l_0_1_7)))
 (let ((?x493 (+ (* (* 2.0 l_0_1_2) l_0_1_4) (* (* 2.0 l_0_1_3) l_0_1_5))))
 (let ((?x797 (- (* (* (* (- 2.0) _a_2_) l_0_1_1) l_0_1_4) (* (* (* 2.0 _a_3_) l_0_1_1) l_0_1_2))))
 (let ((?x799 (- ?x797 (* _a_4_ (+ (* l_0_1_2 l_0_1_2) (* l_0_1_3 l_0_1_3))))))
 (= (- (- ?x799 (* _a_5_ ?x493)) ?x430) 0.0)))))))
(assert
 (let ((?x326 (* l_0_1_9 l_0_1_9)))
 (let ((?x323 (* l_0_1_8 l_0_1_8)))
 (let ((?x850 (- (* (- _a_2_) (+ (* l_0_1_2 l_0_1_2) (* l_0_1_3 l_0_1_3))) ?x323)))
 (= (- ?x850 ?x326) 0.0)))))
(assert
 (let ((?x505 (* (* 2.0 l_0_1_11) l_0_1_9)))
 (let ((?x429 (* 2.0 l_0_1_10)))
 (let ((?x502 (* ?x429 l_0_1_8)))
 (let ((?x493 (+ (* (* 2.0 l_0_1_2) l_0_1_4) (* (* 2.0 l_0_1_3) l_0_1_5))))
 (let ((?x848 (- _a_2_)))
 (let ((?x867 (- (* ?x848 ?x493) (* _a_3_ (+ (* l_0_1_2 l_0_1_2) (* l_0_1_3 l_0_1_3))))))
 (= (- (- ?x867 ?x502) ?x505) 0.0))))))))
(assert
 (>= l_0_1_1 0.0))
(assert
 (>= l_0_1_3 0.0))
(assert
 (>= l_0_1_6 0.0))
(assert
 (>= l_0_1_7 0.0))
(assert
 (>= l_0_1_9 0.0))
(assert
 (>= l_0_1_12 0.0))
(assert
 (>= l_0_1_13 0.0))
(assert
 (>= l_0_1_15 0.0))
(assert
 (>= l_0_1_18 0.0))
(assert
 (let ((?x906 (* l_0_2_13 l_0_2_13)))
 (let ((?x910 (- (- (+ (* (* (- _a_0_) l_0_2_1) l_0_2_1) _a_0_) ?x906) (* (* 1.0 l_0_2_7) l_0_2_7))))
 (= ?x910 0.0))))
(assert
 (let ((?x918 (* l_0_2_7 l_0_2_7)))
 (let ((?x957 (* l_0_2_18 l_0_2_18)))
 (let ((?x955 (* l_0_2_17 l_0_2_17)))
 (let ((?x953 (* l_0_2_16 l_0_2_16)))
 (let ((?x939 (* (/ 81.0 10000.0) _a_3_)))
 (let ((?x936 (* (/ 81.0 1000000.0) _a_2_)))
 (let ((?x933 (* (/ 81.0 100.0) _a_1_)))
 (let ((?x926 (* l_0_2_6 l_0_2_6)))
 (let ((?x927 (+ (+ (* l_0_2_4 l_0_2_4) (* l_0_2_5 l_0_2_5)) ?x926)))
 (let ((?x287 (- _a_0_)))
 (let ((?x937 (+ (+ (- (* ?x287 ?x927) (* (* _a_1_ l_0_2_1) l_0_2_1)) ?x933) ?x936)))
 (let ((?x946 (- (- (- ?x937 ?x939) (* (* (* 2.0 _a_4_) l_0_2_1) l_0_2_4)) (* (* 1.0 l_0_2_10) l_0_2_10))))
 (let ((?x952 (- (- ?x946 (* (* 1.0 l_0_2_11) l_0_2_11)) (* (* 1.0 l_0_2_12) l_0_2_12))))
 (= (+ (- (- (- ?x952 ?x953) ?x955) ?x957) ?x918) 0.0)))))))))))))))
(assert
 (let ((?x1033 (* (* 2.0 l_0_2_11) l_0_2_9)))
 (let ((?x1029 (* 2.0 l_0_2_10)))
 (let ((?x1030 (* ?x1029 l_0_2_8)))
 (let ((?x1022 (* (/ 809919.0 1000000.0) _a_3_)))
 (let ((?x1016 (* (/ 81.0 5000.0) _a_2_)))
 (let ((?x1014 (* (/ 81.0 5000.0) _a_1_)))
 (let ((?x1011 (+ (* (* 2.0 l_0_2_2) l_0_2_4) (* (* 2.0 l_0_2_3) l_0_2_5))))
 (let ((?x287 (- _a_0_)))
 (let ((?x1020 (- (- (+ (* ?x287 ?x1011) ?x1014) ?x1016) (* (* _a_3_ l_0_2_1) l_0_2_1))))
 (let ((?x1028 (- (- (+ ?x1020 ?x1022) (* (* (* 2.0 _a_4_) l_0_2_1) l_0_2_2)) (* (* (* 2.0 _a_5_) l_0_2_1) l_0_2_4))))
 (let ((?x1040 (- (- (- (- ?x1028 ?x1030) ?x1033) (* (* 2.0 l_0_2_14) l_0_2_16)) (* (* 2.0 l_0_2_15) l_0_2_17))))
 (= ?x1040 0.0)))))))))))))
(assert
 (let ((?x918 (* l_0_2_7 l_0_2_7)))
 (let ((?x1117 (* l_0_2_15 l_0_2_15)))
 (let ((?x1115 (* l_0_2_14 l_0_2_14)))
 (let ((?x939 (* (/ 81.0 10000.0) _a_3_)))
 (let ((?x1110 (* (/ 81.0 100.0) _a_2_)))
 (let ((?x1105 (* (/ 81.0 1000000.0) _a_1_)))
 (let ((?x1106 (+ (* (- _a_0_) (+ (* l_0_2_2 l_0_2_2) (* l_0_2_3 l_0_2_3))) ?x1105)))
 (let ((?x1114 (- (+ (+ (- ?x1106 (* (* _a_2_ l_0_2_1) l_0_2_1)) ?x1110) ?x939) (* (* (* 2.0 _a_5_) l_0_2_1) l_0_2_2))))
 (let ((?x1122 (- (+ (- (- ?x1114 ?x1115) ?x1117) ?x918) (* (* 1.0 l_0_2_8) l_0_2_8))))
 (= (- ?x1122 (* (* 1.0 l_0_2_9) l_0_2_9)) 0.0)))))))))))
(assert
 (let ((?x1029 (* 2.0 l_0_2_10)))
 (let ((?x1172 (* ?x1029 l_0_2_7)))
 (let ((?x1170 (* (/ 9.0 1000.0) _a_5_)))
 (let ((?x1167 (* (/ 9.0 10.0) _a_4_)))
 (let ((?x1165 (- (* (* (* (- 2.0) _a_0_) l_0_2_1) l_0_2_4) (* (* _a_4_ l_0_2_1) l_0_2_1))))
 (let ((?x1176 (- (- (- (+ ?x1165 ?x1167) ?x1170) ?x1172) (* (* 2.0 l_0_2_13) l_0_2_16))))
 (= ?x1176 0.0))))))))
(assert
 (let ((?x1213 (* (* 2.0 l_0_2_7) l_0_2_8)))
 (let ((?x1208 (* (/ 9.0 10.0) _a_5_)))
 (let ((?x1207 (- (+ (* (* (* (- 2.0) _a_0_) l_0_2_1) l_0_2_2) (* (/ 9.0 1000.0) _a_4_)) (* (* _a_5_ l_0_2_1) l_0_2_1))))
 (= (- (- (+ ?x1207 ?x1208) (* (* 2.0 l_0_2_13) l_0_2_14)) ?x1213) 0.0)))))
(assert
 (let ((?x1213 (* (* 2.0 l_0_2_7) l_0_2_8)))
 (let ((?x926 (* l_0_2_6 l_0_2_6)))
 (let ((?x927 (+ (+ (* l_0_2_4 l_0_2_4) (* l_0_2_5 l_0_2_5)) ?x926)))
 (let ((?x1011 (+ (* (* 2.0 l_0_2_2) l_0_2_4) (* (* 2.0 l_0_2_3) l_0_2_5))))
 (let ((?x1243 (- (* (* (* (- 2.0) _a_1_) l_0_2_1) l_0_2_2) (* (* (* 2.0 _a_3_) l_0_2_1) l_0_2_4))))
 (= (+ (- (- ?x1243 (* _a_4_ ?x1011)) (* _a_5_ ?x927)) ?x1213) 0.0)))))))
(assert
 (let ((?x1029 (* 2.0 l_0_2_10)))
 (let ((?x1172 (* ?x1029 l_0_2_7)))
 (let ((?x926 (* l_0_2_6 l_0_2_6)))
 (let ((?x927 (+ (+ (* l_0_2_4 l_0_2_4) (* l_0_2_5 l_0_2_5)) ?x926)))
 (let ((?x1297 (+ (- (* (* (* (- 2.0) _a_1_) l_0_2_1) l_0_2_4) (* _a_4_ ?x927)) ?x1172)))
 (= ?x1297 0.0)))))))
(assert
 (let ((?x1157 (* l_0_2_9 l_0_2_9)))
 (let ((?x1153 (* l_0_2_8 l_0_2_8)))
 (let ((?x992 (* l_0_2_12 l_0_2_12)))
 (let ((?x988 (* l_0_2_11 l_0_2_11)))
 (let ((?x984 (* l_0_2_10 l_0_2_10)))
 (let ((?x1011 (+ (* (* 2.0 l_0_2_2) l_0_2_4) (* (* 2.0 l_0_2_3) l_0_2_5))))
 (let ((?x926 (* l_0_2_6 l_0_2_6)))
 (let ((?x927 (+ (+ (* l_0_2_4 l_0_2_4) (* l_0_2_5 l_0_2_5)) ?x926)))
 (let ((?x1321 (- (* (- _a_1_) (+ (* l_0_2_2 l_0_2_2) (* l_0_2_3 l_0_2_3))) (* _a_2_ ?x927))))
 (let ((?x1328 (+ (+ (+ (+ (+ (- ?x1321 (* _a_3_ ?x1011)) ?x984) ?x988) ?x992) ?x1153) ?x1157)))
 (= ?x1328 0.0))))))))))))
(assert
 (let ((?x1033 (* (* 2.0 l_0_2_11) l_0_2_9)))
 (let ((?x1029 (* 2.0 l_0_2_10)))
 (let ((?x1030 (* ?x1029 l_0_2_8)))
 (let ((?x926 (* l_0_2_6 l_0_2_6)))
 (let ((?x927 (+ (+ (* l_0_2_4 l_0_2_4) (* l_0_2_5 l_0_2_5)) ?x926)))
 (let ((?x1011 (+ (* (* 2.0 l_0_2_2) l_0_2_4) (* (* 2.0 l_0_2_3) l_0_2_5))))
 (let ((?x653 (- _a_1_)))
 (= (+ (+ (- (* ?x653 ?x1011) (* _a_3_ ?x927)) ?x1030) ?x1033) 0.0)))))))))
(assert
 (let ((?x992 (* l_0_2_12 l_0_2_12)))
 (let ((?x988 (* l_0_2_11 l_0_2_11)))
 (let ((?x984 (* l_0_2_10 l_0_2_10)))
 (let ((?x926 (* l_0_2_6 l_0_2_6)))
 (let ((?x927 (+ (+ (* l_0_2_4 l_0_2_4) (* l_0_2_5 l_0_2_5)) ?x926)))
 (let ((?x653 (- _a_1_)))
 (= (+ (+ (+ (* ?x653 ?x927) ?x984) ?x988) ?x992) 0.0))))))))
(assert
 (let ((?x1213 (* (* 2.0 l_0_2_7) l_0_2_8)))
 (let ((?x1414 (- (* (* (* (- 2.0) _a_2_) l_0_2_1) l_0_2_2) (* _a_5_ (+ (* l_0_2_2 l_0_2_2) (* l_0_2_3 l_0_2_3))))))
 (= (+ ?x1414 ?x1213) 0.0))))
(assert
 (let ((?x1029 (* 2.0 l_0_2_10)))
 (let ((?x1172 (* ?x1029 l_0_2_7)))
 (let ((?x1011 (+ (* (* 2.0 l_0_2_2) l_0_2_4) (* (* 2.0 l_0_2_3) l_0_2_5))))
 (let ((?x1435 (- (* (* (* (- 2.0) _a_2_) l_0_2_1) l_0_2_4) (* (* (* 2.0 _a_3_) l_0_2_1) l_0_2_2))))
 (let ((?x1437 (- ?x1435 (* _a_4_ (+ (* l_0_2_2 l_0_2_2) (* l_0_2_3 l_0_2_3))))))
 (= (+ (- ?x1437 (* _a_5_ ?x1011)) ?x1172) 0.0)))))))
(assert
 (let ((?x1157 (* l_0_2_9 l_0_2_9)))
 (let ((?x1153 (* l_0_2_8 l_0_2_8)))
 (let ((?x1484 (+ (* (- _a_2_) (+ (* l_0_2_2 l_0_2_2) (* l_0_2_3 l_0_2_3))) ?x1153)))
 (= (+ ?x1484 ?x1157) 0.0)))))
(assert
 (let ((?x1033 (* (* 2.0 l_0_2_11) l_0_2_9)))
 (let ((?x1029 (* 2.0 l_0_2_10)))
 (let ((?x1030 (* ?x1029 l_0_2_8)))
 (let ((?x1011 (+ (* (* 2.0 l_0_2_2) l_0_2_4) (* (* 2.0 l_0_2_3) l_0_2_5))))
 (let ((?x848 (- _a_2_)))
 (let ((?x1496 (- (* ?x848 ?x1011) (* _a_3_ (+ (* l_0_2_2 l_0_2_2) (* l_0_2_3 l_0_2_3))))))
 (= (+ (+ ?x1496 ?x1030) ?x1033) 0.0))))))))
(assert
 (>= l_0_2_1 0.0))
(assert
 (>= l_0_2_3 0.0))
(assert
 (>= l_0_2_6 0.0))
(assert
 (>= l_0_2_7 0.0))
(assert
 (>= l_0_2_9 0.0))
(assert
 (>= l_0_2_12 0.0))
(assert
 (>= l_0_2_13 0.0))
(assert
 (>= l_0_2_15 0.0))
(assert
 (>= l_0_2_18 0.0))
(check-sat)
(get-model)